data/processed_heuristic-threshold/instances/1/9/ds_605_courier_4849/pairwise.tsp
NAME: ds_605_courier_4849
TYPE: TSP
COMMENT: nil
DIMENSION: 10
EDGE_WEIGHT_TYPE: EXPLICIT
EDGE_WEIGHT_FORMAT: FULL_MATRIX
EDGE_WEIGHT_SECTION
9999 3662 3487 2787 2336 3126 3124 3141 3085 3071 
3662 9999 304 1050 1429 538 540 595 745 716 
3487 304 9999 783 1195 408 406 616 795 747 
2787 1050 783 9999 450 606 599 863 987 927 
2336 1429 1195 450 9999 914 909 1080 1142 1092 
3126 538 408 606 914 9999 8 302 473 413 
3124 540 406 599 909 8 9999 310 481 420 
3141 595 616 863 1080 302 310 9999 182 131 
3085 745 795 987 1142 473 481 182 9999 62 
3071 716 747 927 1092 413 420 131 62 9999 
