data/processed_heuristic-threshold/instances/1/9/ds_605_courier_4849/pairwise.sol
10
0 8 9 7 1 2 5 6 3 4 
